proyfinal/src/viki/013/experimentInOfficeAgust.take6.output/bce3b39d-0e44-413a-9dc8-d77c8075f041.als.dat
{'cnf.clauses': '118081',
 'cnf.totvars': '69608',
 'conflict literals': '20',
 'conflicts': '11',
 'decisions': '6194',
 'memused.mb': '14.81',
 'outcome': 'UNSAT',
 'propagations': '28519',
 'restarts': '1',
 'solver.msecs': 30,
 'task.msecs': 92}
