proyfinal/src/viki/013/experimentInOfficeAgust.take6.output/bce3b39d-0e44-413a-9dc8-d77c8075f041.als.out
Reading from standard input... Use '--help' for help.
============================[ Problem Statistics ]=============================
|                                                                             |
|  Number of variables:         69608                                         |
|  Number of clauses:          118081                                         |
|  Parse time:                   0.02 s                                       |
|                                                                             |
============================[ Search Statistics ]==============================
| Conflicts |          ORIGINAL         |          LEARNT          | Progress |
|           |    Vars  Clauses Literals |    Limit  Clauses Lit/Cl |          |
===============================================================================
===============================================================================
restarts              : 1
conflicts             : 11             (360 /sec)
decisions             : 6194           (0.00 % random) (202809 /sec)
propagations          : 28519          (933794 /sec)
conflict literals     : 20             (0.00 % deleted)
Memory used           : 14.81 MB
CPU time              : 0.030541 s

UNSATISFIABLE
